proyfinal/src/viki/013/experimentInOfficeAgust.take6.output/1f9979b5-95d8-47dd-84e8-49af988b63b1.als.dat
{'cnf.clauses': '118081',
 'cnf.totvars': '69608',
 'conflict literals': '739',
 'conflicts': '105',
 'decisions': '4381',
 'memused.mb': '15.89',
 'outcome': 'UNSAT',
 'propagations': '138101',
 'restarts': '2',
 'solver.msecs': 43,
 'task.msecs': 110}
