proyfinal/src/viki/013/experimentInOfficeAgust.take6.output/1f9979b5-95d8-47dd-84e8-49af988b63b1.als.out
Reading from standard input... Use '--help' for help.
============================[ Problem Statistics ]=============================
|                                                                             |
|  Number of variables:         69608                                         |
|  Number of clauses:          118081                                         |
|  Parse time:                   0.03 s                                       |
|                                                                             |
============================[ Search Statistics ]==============================
| Conflicts |          ORIGINAL         |          LEARNT          | Progress |
|           |    Vars  Clauses Literals |    Limit  Clauses Lit/Cl |          |
===============================================================================
|       100 |   54520    81168   200746 |    29761       88      8 | 21.676 % |
===============================================================================
restarts              : 2
conflicts             : 105            (2398 /sec)
decisions             : 4381           (0.00 % random) (100055 /sec)
propagations          : 138101         (3153999 /sec)
conflict literals     : 739            (19.85 % deleted)
Memory used           : 15.89 MB
CPU time              : 0.043786 s

UNSATISFIABLE
